Version identifier: 12.10.0.0 | 2019-11-26 | 843d4de
CPXPARAM_WorkMem                                 28672
Tried aggregator 2 times.
MIP Presolve modified 122 coefficients.
Aggregator did 20 substitutions.
Reduced MIP has 115 rows, 150 columns, and 545 nonzeros.
Reduced MIP has 150 binaries, 0 generals, 0 SOSs, and 0 indicators.
Presolve time = 0,00 sec. (0,71 ticks)
Found incumbent of value 473,000000 after 0,00 sec. (1,46 ticks)
Probing time = 0,00 sec. (0,20 ticks)
Tried aggregator 1 time.
Detecting symmetries...
MIP Presolve eliminated 23 rows and 0 columns.
MIP Presolve added 46 rows and 0 columns.
Reduced MIP has 138 rows, 150 columns, and 568 nonzeros.
Reduced MIP has 150 binaries, 0 generals, 0 SOSs, and 0 indicators.
Presolve time = 0,00 sec. (0,65 ticks)
Probing time = 0,00 sec. (0,20 ticks)
Clique table members: 318.
MIP emphasis: balance optimality and feasibility.
MIP search method: dynamic search.
Parallel mode: deterministic, using up to 16 threads.
Root relaxation solution time = 0,00 sec. (0,64 ticks)

        Nodes                                         Cuts/
   Node  Left     Objective  IInf  Best Integer    Best Bound    ItCnt     Gap

*     0+    0                          473,0000        0,0000           100,00%
*     0+    0                          276,0000        0,0000           100,00%
*     0+    0                          268,0000        0,0000           100,00%
*     0+    0                          248,0000        0,0000           100,00%
      0     0      131,0333    81      248,0000      131,0333      115   47,16%
      0     0      134,2358    81      248,0000     Cuts: 122      175   45,87%
      0     0      147,9612    81      248,0000     Cuts: 134      273   40,34%
      0     0      153,2018    81      248,0000     Cuts: 132      334   38,23%
      0     0      157,0210    81      248,0000     Cuts: 105      384   36,69%
      0     0      158,8544    81      248,0000      Cuts: 61      428   35,95%
      0     0      159,6813    81      248,0000      Cuts: 59      465   35,61%
*     0+    0                          245,0000      159,6813            34,82%
      0     0      160,4128    81      245,0000      Cuts: 41      496   34,53%
      0     0      161,8733    81      245,0000      Cuts: 47      531   33,93%
      0     0      163,5724    81      245,0000      Cuts: 56      574   33,24%
      0     0      164,3849    81      245,0000      Cuts: 21      613   32,90%
      0     0      165,5533    81      245,0000      Cuts: 42      658   32,43%
      0     0      166,7785    81      245,0000      Cuts: 44      708   31,93%
      0     0      168,0801    81      245,0000      Cuts: 66      767   31,40%
      0     0      169,0694    81      245,0000      Cuts: 42      829   30,99%
      0     0      170,4020    81      245,0000      Cuts: 43      879   30,45%
      0     0      171,2974    81      245,0000      Cuts: 41      924   30,08%
      0     0      172,1329    81      245,0000      Cuts: 31      970   29,74%
      0     0      172,7569    81      245,0000      Cuts: 39     1006   29,49%
      0     0      172,9421    81      245,0000      Cuts: 33     1039   29,41%
      0     0      173,4259    81      245,0000      Cuts: 31     1072   29,21%
      0     0      173,6980    81      245,0000      Cuts: 35     1101   29,10%
*     0+    0                          234,0000      173,6980            25,77%
      0     0      174,2991    81      234,0000      Cuts: 29     1138   25,51%
      0     0      174,6716    81      234,0000      Cuts: 22     1171   25,35%
      0     0      175,0693    81      234,0000      Cuts: 25     1221   25,18%
      0     0      175,1391    81      234,0000      Cuts: 19     1244   25,15%
      0     0      175,3400    81      234,0000      Cuts: 26     1287   25,07%
      0     0      175,5311    81      234,0000      Cuts: 31     1329   24,99%
      0     0      175,7631    81      234,0000      Cuts: 24     1372   24,89%
      0     0      175,9142    81      234,0000      Cuts: 23     1404   24,82%
      0     0      175,9664    81      234,0000      Cuts: 23     1424   24,80%
      0     0      176,0566    81      234,0000      Cuts: 14     1448   24,76%
      0     0      176,1171    81      234,0000      Cuts: 19     1474   24,74%
      0     0      176,1911    81      234,0000      Cuts: 10     1497   24,70%
      0     0      176,3063    81      234,0000      Cuts: 21     1521   24,66%
      0     0      176,4060    81      234,0000      Cuts: 14     1555   24,61%
      0     0      176,4370    81      234,0000      Cuts: 15     1574   24,60%
      0     2      176,4370   148      234,0000      211,4500     1574    9,64%
Elapsed time = 0,66 sec. (222,91 ticks, tree = 0,02 MB, solutions = 6)

GUB cover cuts applied:  20
Clique cuts applied:  24
Cover cuts applied:  103
Flow cuts applied:  2
Mixed integer rounding cuts applied:  35
Zero-half cuts applied:  47
Gomory fractional cuts applied:  1

Root node processing (before b&c):
  Real time             =    0,66 sec. (222,66 ticks)
Parallel b&c, 16 threads:
  Real time             =    0,08 sec. (46,05 ticks)
  Sync time (average)   =    0,05 sec.
  Wait time (average)   =    0,00 sec.
                          ------------
Total (root+branch&cut) =    0,73 sec. (268,70 ticks)
